p tw 20 53
0 1
0 4
0 6
0 16
0 13
0 3
0 19
1 10
1 19
2 3
2 5
2 12
2 16
2 7
3 13
3 18
4 12
4 6
5 6
5 7
5 11
5 14
5 15
5 18
6 8
6 7
7 17
7 14
8 15
8 18
9 10
9 16
9 19
9 14
10 12
10 13
10 19
11 12
11 13
11 18
11 17
11 16
12 16
12 15
13 14
13 15
14 15
14 18
15 16
15 17
15 19
16 17
16 18
